unsat
(:SPACER-conj                         18
 :SPACER-inductive-gen                309
 :SPACER-inductive-gen-weaken-fail    660
 :SPACER-inductive-gen-weaken-success 62
 :SPACER-inductive-level              4
 :SPACER-max-depth                    12
 :SPACER-max-query-lvl                12
 :SPACER-non-local-gen                49
 :SPACER-num-active-lemmas            49
 :SPACER-num-ctp-blocked              189
 :SPACER-num-invariants               160
 :SPACER-num-is_invariant             1194
 :SPACER-num-lemma-jumped             37
 :SPACER-num-lemmas                   335
 :SPACER-num-non-lin                  1
 :SPACER-num-pobs                     200
 :SPACER-num-propagations             764
 :SPACER-num-queries                  235
 :SPACER-num-reach-queries            8
 :SPACER-num-reuse-reach-facts        8
 :SPACER-subsume-failed               6
 :SPACER-subsume-pob                  43
 :SPACER-subsume-success              95
 :added-eqs                           140282
 :arith-assert-diseq                  93670
 :arith-assert-lower                  260454
 :arith-assert-upper                  286964
 :arith-bound-prop                    9028
 :arith-branch-var                    4
 :arith-conflicts                     802
 :arith-eq-adapter                    13596
 :arith-fixed-eqs                     51804
 :arith-gcd-conflicts                 2
 :arith-gcd-tests                     70
 :arith-ineq-splits                   4
 :arith-num-rows                      206
 :arith-offset-eqs                    22502
 :arith-patches                       6
 :arith-pivots                        12274
 :arith-row-summations                240342
 :arith-tableau-max-columns           302
 :arith-tableau-max-rows              206
 :conflicts                           6716
 :decisions                           982842
 :del-clause                          8624
 :final-checks                        2394
 :iuc_solver.num_proxies              1199
 :max-memory                          68.32
 :memory                              65.05
 :minimized-lits                      2038
 :mk-bool-var                         26056
 :mk-clause                           24884
 :num-allocs                          15630122230.00
 :num-checks                          6750
 :pool_solver.checks                  3375
 :pool_solver.checks.sat              958
 :pool_solver.checks.undef            235
 :propagations                        1761154
 :rlimit-count                        12724840
 :time                                6.49
 :time.iuc_solver.get_iuc             0.63
 :time.iuc_solver.get_iuc.hyp_reduce1 0.26
 :time.iuc_solver.get_iuc.hyp_reduce2 0.35
 :time.iuc_solver.get_iuc.learn_core  0.11
 :time.pool_solver.proof              0.09
 :time.pool_solver.smt.total          3.57
 :time.pool_solver.smt.total.sat      1.70
 :time.pool_solver.smt.total.undef    0.31
 :time.spacer.ctp                     0.08
 :time.spacer.init_rules              0.00
 :time.spacer.mbp                     0.05
 :time.spacer.solve                   6.38
 :time.spacer.solve.propagate         0.96
 :time.spacer.solve.reach             5.41
 :time.spacer.solve.reach.children    0.20
 :time.spacer.solve.reach.cluster     1.02
 :time.spacer.solve.reach.gen.global  0.43
 :time.spacer.solve.reach.gen.ind     1.80
 :time.spacer.solve.reach.is-reach    0.01)
(:max-memory   68.32
 :memory       65.05
 :num-allocs   15630122230.00
 :rlimit-count 12724840
 :time         6.49
 :total-time   6.50)
